34 18
6 451
10 298
2 222
4 898
15 900
4 547
6 481
6 388
13 531
9 361
7 164
17 152
2 906
6 180
14 697
7 275
2 311
7 563
9 376
17 502
6 231
14 16
11 621
4 160
2 477
8 704
9 94
17 461
2 342
10 172
1 806
1 999
15 430
4 115
